9,8	0,0	20,0	14,8	0,0	0,0	0,0	0,0	0,0	7,5
8,1	14,6	0,0	17,3	14,9	0,0	0,0	7,9	0,0	0,0
0,0	0,0	17,9	0,0	10,4	17,9	0,0	0,0	17,6	0,0
19,6	0,0	18,0	0,0	0,0	0,0	13,0	0,0	0,0	0,0
0,0	7,0	0,0	12,7	16,7	0,0	0,0	13,1	0,0	0,0
0,0	14,7	11,3	0,0	6,1	16,6	0,0	0,0	17,8	0,0
0,0	16,3	0,0	10,4	0,0	0,0	13,5	0,0	0,0	10,5
8,1	0,0	15,5	0,0	0,0	0,0	0,0	0,0	0,0	10,6
0,0	7,9	0,0	17,0	10,7	0,0	0,0	18,8	0,0	0,0
0,0	0,0	19,7	0,0	0,0	10,4	13,6	0,0	0,0	17,3
									
4,0	4,4	3,3	4,8	4,8	3,0	4,5	4,0	4,8	3,3
